(set-info :smt-lib-version 2.6)
(set-logic AUFBVDTNIRA)
(set-info :source |
Generated by: Yannick Moy
Generated on: 2022-02-14
Generator: GNATprove
Application: GNAT light runtime library
Target solver: Alt-Ergo, CVC4, Z3
|)
(set-info :license "https://creativecommons.org/licenses/by/4.0/")
(set-info :category "industrial")
(set-info :status unsat)

;;; generated by SMT-LIB2 driver
;;; SMT-LIB2 driver: bit-vectors, common part
;;; SMT-LIB2: integer arithmetic
(declare-sort string 0)

(declare-datatypes ((tuple0 0))
  (((Tuple0))))

(declare-sort us_private 0)

;; private__bool_eq
(declare-fun private__bool_eq (us_private
  us_private) Bool)

(declare-const us_null_ext__ us_private)

(declare-sort us_type_of_heap 0)

(declare-datatypes ((us_type_of_heap__ref 0))
  (((us_type_of_heap__refqtmk (us_type_of_heap__content us_type_of_heap)))))

(declare-sort us_image 0)

(declare-datatypes ((int__ref 0))
  (((int__refqtmk (int__content Int)))))

(declare-datatypes ((bool__ref 0))
  (((bool__refqtmk (bool__content Bool)))))

(declare-datatypes ((us_fixed__ref 0))
  (((us_fixed__refqtmk (us_fixed__content Int)))))

(declare-datatypes ((real__ref 0))
  (((real__refqtmk (real__content Real)))))

(declare-datatypes ((us_private__ref 0))
  (((us_private__refqtmk (us_private__content us_private)))))

;; int__ref___projection
(define-fun int__ref___projection ((a int__ref)) Int
  (int__content a))

;; __fixed__ref___projection
(define-fun us_fixed__ref___projection ((a us_fixed__ref)) Int
  (us_fixed__content a))

;; bool__ref___projection
(define-fun bool__ref___projection ((a bool__ref)) Bool
  (bool__content a))

;; real__ref___projection
(define-fun real__ref___projection ((a real__ref)) Real
  (real__content a))

;; __private__ref___projection
(define-fun us_private__ref___projection ((a us_private__ref)) us_private
  (us_private__content a))

;; power
(declare-fun power (Int
  Int) Int)

;; Power_0
(assert (forall ((x Int)) (= (power x 0) 1)))

;; Power_s
(assert
  (forall ((x Int) (n Int))
    (=> (<= 0 n) (= (power x (+ n 1)) (* x (power x n))))))

;; Power_s_alt
(assert
  (forall ((x Int) (n Int))
    (=> (< 0 n) (= (power x n) (* x (power x (- n 1)))))))

;; Power_1
(assert (forall ((x Int)) (= (power x 1) x)))

;; Power_sum
(assert
  (forall ((x Int) (n Int) (m Int))
    (=>
      (<= 0 n)
      (=> (<= 0 m) (= (power x (+ n m)) (* (power x n) (power x m)))))))

;; Power_mult
(assert
  (forall ((x Int) (n Int) (m Int))
    (=> (<= 0 n) (=> (<= 0 m) (= (power x (* n m)) (power (power x n) m))))))

;; Power_comm1
(assert
  (forall ((x Int) (y Int))
    (=>
      (= (* x y) (* y x))
      (forall ((n Int))
        (=> (<= 0 n) (= (* (power x n) y) (* y (power x n))))))))

;; Power_comm2
(assert
  (forall ((x Int) (y Int))
    (=>
      (= (* x y) (* y x))
      (forall ((n Int))
        (=> (<= 0 n) (= (power (* x y) n) (* (power x n) (power y n))))))))

;; Power_non_neg
(assert
  (forall ((x Int) (y Int)) (=> (and (<= 0 x) (<= 0 y)) (<= 0 (power x y)))))

;; Power_pos
(assert
  (forall ((x Int) (y Int)) (=> (and (< 0 x) (<= 0 y)) (< 0 (power x y)))))

;; Power_monotonic
(assert
  (forall ((x Int) (n Int) (m Int))
    (=> (and (< 0 x) (and (<= 0 n) (<= n m))) (<= (power x n) (power x m)))))

;; abs
(define-fun abs1 ((x Int)) Int
  (ite (<= 0 x) x (- x)))

;; Abs_le
(assert
  (forall ((x Int) (y Int)) (= (<= (abs1 x) y) (and (<= (- y) x) (<= x y)))))

;; Abs_pos
(assert (forall ((x Int)) (<= 0 (abs1 x))))

;; div
(declare-fun div1 (Int
  Int) Int)

;; mod
(declare-fun mod1 (Int
  Int) Int)

;; Div_mod
(assert
  (forall ((x Int) (y Int))
    (=> (not (= y 0)) (= x (+ (* y (div1 x y)) (mod1 x y))))))

;; Div_bound
(assert
  (forall ((x Int) (y Int))
    (=> (and (<= 0 x) (< 0 y)) (and (<= 0 (div1 x y)) (<= (div1 x y) x)))))

;; Mod_bound
(assert
  (forall ((x Int) (y Int))
    (=>
      (not (= y 0))
      (and (< (- (abs1 y)) (mod1 x y)) (< (mod1 x y) (abs1 y))))))

;; Div_sign_pos
(assert
  (forall ((x Int) (y Int)) (=> (and (<= 0 x) (< 0 y)) (<= 0 (div1 x y)))))

;; Div_sign_neg
(assert
  (forall ((x Int) (y Int)) (=> (and (<= x 0) (< 0 y)) (<= (div1 x y) 0))))

;; Mod_sign_pos
(assert
  (forall ((x Int) (y Int))
    (=> (and (<= 0 x) (not (= y 0))) (<= 0 (mod1 x y)))))

;; Mod_sign_neg
(assert
  (forall ((x Int) (y Int))
    (=> (and (<= x 0) (not (= y 0))) (<= (mod1 x y) 0))))

;; Rounds_toward_zero
(assert
  (forall ((x Int) (y Int))
    (=> (not (= y 0)) (<= (abs1 (* (div1 x y) y)) (abs1 x)))))

;; Div_1
(assert (forall ((x Int)) (= (div1 x 1) x)))

;; Mod_1
(assert (forall ((x Int)) (= (mod1 x 1) 0)))

;; Div_inf
(assert
  (forall ((x Int) (y Int)) (=> (and (<= 0 x) (< x y)) (= (div1 x y) 0))))

;; Mod_inf
(assert
  (forall ((x Int) (y Int)) (=> (and (<= 0 x) (< x y)) (= (mod1 x y) x))))

;; Div_mult
(assert
  (forall ((x Int) (y Int) (z Int))
    (! (=>
         (and (< 0 x) (and (<= 0 y) (<= 0 z)))
         (= (div1 (+ (* x y) z) x) (+ y (div1 z x)))) :pattern ((div1
                                                                  (+ (* x y) z)
                                                                  x)) )))

;; Mod_mult
(assert
  (forall ((x Int) (y Int) (z Int))
    (! (=>
         (and (< 0 x) (and (<= 0 y) (<= 0 z)))
         (= (mod1 (+ (* x y) z) x) (mod1 z x))) :pattern ((mod1
                                                            (+ (* x y) z)
                                                            x)) )))

;; Div_unique
(assert
  (forall ((x Int) (y Int) (q Int))
    (=>
      (< 0 y)
      (=> (and (<= (* q y) x) (< x (+ (* q y) y))) (= (div x y) q)))))

;; Div_bound
(assert
  (forall ((x Int) (y Int))
    (=> (and (<= 0 x) (< 0 y)) (and (<= 0 (div x y)) (<= (div x y) x)))))

;; Div_inf
(assert
  (forall ((x Int) (y Int)) (=> (and (<= 0 x) (< x y)) (= (div x y) 0))))

;; Div_inf_neg
(assert
  (forall ((x Int) (y Int))
    (=> (and (< 0 x) (<= x y)) (= (div (- x) y) (- 1)))))

;; Mod_0
(assert (forall ((y Int)) (=> (not (= y 0)) (= (mod 0 y) 0))))

;; Div_1_left
(assert (forall ((y Int)) (=> (< 1 y) (= (div 1 y) 0))))

;; Div_minus1_left
(assert (forall ((y Int)) (=> (< 1 y) (= (div (- 1) y) (- 1)))))

;; Mod_1_left
(assert (forall ((y Int)) (=> (< 1 y) (= (mod 1 y) 1))))

;; Mod_minus1_left
(assert
  (forall ((y Int))
    (! (=> (< 1 y) (= (mod (- 1) y) (- y 1))) :pattern ((mod (- 1) y)) )))

;; Div_mult
(assert
  (forall ((x Int) (y Int) (z Int))
    (! (=> (< 0 x) (= (div (+ (* x y) z) x) (+ y (div z x)))) :pattern ((div (+ (* x y) z) x)) )))

;; Mod_mult
(assert
  (forall ((x Int) (y Int) (z Int))
    (! (=> (< 0 x) (= (mod (+ (* x y) z) x) (mod z x))) :pattern ((mod (+ (* x y) z) x)) )))

;; mod
(define-fun mod2 ((x Int) (y Int)) Int
  (ite (or (and (< 0 x) (< 0 y)) (and (< x 0) (< y 0)))
    (mod1 x y)
    (ite (= (mod1 x y) 0) 0 (+ (mod1 x y) y))))

;; nth
(declare-fun nth ((_ BitVec 32)
  Int) Bool)

;; lsr
(declare-fun lsr ((_ BitVec 32)
  Int) (_ BitVec 32))

;; asr
(declare-fun asr ((_ BitVec 32)
  Int) (_ BitVec 32))

;; lsl
(declare-fun lsl ((_ BitVec 32)
  Int) (_ BitVec 32))

;; rotate_right
(declare-fun rotate_right1 ((_ BitVec 32)
  Int) (_ BitVec 32))

;; rotate_left
(declare-fun rotate_left1 ((_ BitVec 32)
  Int) (_ BitVec 32))

;; pow2
(declare-fun pow2 (Int) Int)

(declare-const two_power_size_minus_one Int)

;; two_power_size_minus_one_val
(assert (= two_power_size_minus_one (pow2 (- 32 1))))

;; to_int
(define-fun to_int1 ((x (_ BitVec 32))) Int
  (ite (bvsge x (_ bv0 32)) (bv2nat x) (- (- 4294967296 (bv2nat x)))))

;; uint_in_range
(define-fun uint_in_range ((i Int)) Bool
  (and (<= 0 i) (<= i 4294967295)))

;; lsr_bv_is_lsr
(assert
  (forall ((x (_ BitVec 32)) (n (_ BitVec 32)))
    (= (bvlshr x n) (lsr x (bv2nat n)))))

;; asr_bv_is_asr
(assert
  (forall ((x (_ BitVec 32)) (n (_ BitVec 32)))
    (= (bvashr x n) (asr x (bv2nat n)))))

;; lsl_bv_is_lsl
(assert
  (forall ((x (_ BitVec 32)) (n (_ BitVec 32)))
    (= (bvshl x n) (lsl x (bv2nat n)))))

;; rotate_left_bv_is_rotate_left
(assert
  (forall ((v (_ BitVec 32)) (n (_ BitVec 32)))
    (= (bvor (bvshl v (bvurem n (_ bv32 32))) (bvlshr v (bvsub (_ bv32 32) (bvurem n (_ bv32 32))))) 
    (rotate_left1
      v
      (bv2nat n)))))

;; rotate_right_bv_is_rotate_right
(assert
  (forall ((v (_ BitVec 32)) (n (_ BitVec 32)))
    (= (bvor (bvlshr v (bvurem n (_ bv32 32))) (bvshl v (bvsub (_ bv32 32) (bvurem n (_ bv32 32))))) 
    (rotate_right1
      v
      (bv2nat n)))))

;; nth_bv
(declare-fun nth_bv ((_ BitVec 32)
  (_ BitVec 32)) Bool)

;; nth_bv_def
(assert
  (forall ((x (_ BitVec 32)) (i (_ BitVec 32)))
    (=
      (= (nth_bv x i) true)
      (not (= (bvand (bvlshr x i) #x00000001) #x00000000)))))

;; Nth_bv_is_nth
(assert
  (forall ((x (_ BitVec 32)) (i (_ BitVec 32)))
    (= (nth x (bv2nat i)) (nth_bv x i))))

;; Nth_bv_is_nth2
(assert
  (forall ((x (_ BitVec 32)) (i Int))
    (=>
      (and (<= 0 i) (< i 4294967296))
      (= (nth_bv x ((_ int2bv 32) i)) (nth x i)))))

;; eq_sub_bv
(declare-fun eq_sub_bv ((_ BitVec 32)
  (_ BitVec 32)
  (_ BitVec 32)
  (_ BitVec 32)) Bool)

;; eq_sub_bv_def
(assert
  (forall ((a (_ BitVec 32)) (b (_ BitVec 32)) (i (_ BitVec 32)) (n (_ BitVec 32)))
    (let ((mask (bvshl (bvsub (bvshl #x00000001 n) #x00000001) i)))
      (= (eq_sub_bv a b i n) (= (bvand b mask) (bvand a mask))))))

;; eq_sub
(define-fun eq_sub ((a (_ BitVec 32)) (b (_ BitVec 32)) (i Int) (n Int)) Bool
  (forall ((j Int))
    (=> (and (<= i j) (< j (+ i n))) (= (nth a j) (nth b j)))))

;; eq_sub_equiv
(assert
  (forall ((a (_ BitVec 32)) (b (_ BitVec 32)) (i (_ BitVec 32)) (n (_ BitVec 32)))
    (= (eq_sub a b (bv2nat i) (bv2nat n)) (eq_sub_bv a b i n))))

(declare-datatypes ((t__ref 0))
  (((t__refqtmk (t__content (_ BitVec 32))))))

;; bool_eq
(define-fun bool_eq ((x (_ BitVec 32)) (y (_ BitVec 32))) Bool
  (ite (= x y) true false))

;; bool_ne
(define-fun bool_ne ((x (_ BitVec 32)) (y (_ BitVec 32))) Bool
  (ite (not (= x y)) true false))

;; bool_lt
(define-fun bool_lt ((x (_ BitVec 32)) (y (_ BitVec 32))) Bool
  (ite (bvult x y) true false))

;; bool_le
(define-fun bool_le ((x (_ BitVec 32)) (y (_ BitVec 32))) Bool
  (ite (bvule x y) true false))

;; bool_gt
(define-fun bool_gt ((x (_ BitVec 32)) (y (_ BitVec 32))) Bool
  (ite (bvugt x y) true false))

;; bool_ge
(define-fun bool_ge ((x (_ BitVec 32)) (y (_ BitVec 32))) Bool
  (ite (bvuge x y) true false))

;; power
(declare-fun power1 ((_ BitVec 32)
  Int) (_ BitVec 32))

;; Power_0
(assert (forall ((x (_ BitVec 32))) (= (power1 x 0) #x00000001)))

;; Power_1
(assert (forall ((x (_ BitVec 32))) (= (power1 x 1) x)))

;; Power_s
(assert
  (forall ((x (_ BitVec 32)) (n Int))
    (=> (<= 0 n) (= (power1 x (+ n 1)) (bvmul x (power1 x n))))))

;; Power_s_alt
(assert
  (forall ((x (_ BitVec 32)) (n Int))
    (=> (< 0 n) (= (power1 x n) (bvmul x (power1 x (- n 1)))))))

;; Power_sum
(assert
  (forall ((x (_ BitVec 32)) (n Int) (m Int))
    (=>
      (<= 0 n)
      (=> (<= 0 m) (= (power1 x (+ n m)) (bvmul (power1 x n) (power1 x m)))))))

;; Power_mult
(assert
  (forall ((x (_ BitVec 32)) (n Int) (m Int))
    (=>
      (<= 0 n)
      (=> (<= 0 m) (= (power1 x (* n m)) (power1 (power1 x n) m))))))

;; Power_mult2
(assert
  (forall ((x (_ BitVec 32)) (y (_ BitVec 32)) (n Int))
    (=>
      (<= 0 n)
      (= (power1 (bvmul x y) n) (bvmul (power1 x n) (power1 y n))))))

;; bv_min
(define-fun bv_min ((x (_ BitVec 32)) (y (_ BitVec 32))) (_ BitVec 32)
  (ite (bvule x y) x y))

;; bv_max
(define-fun bv_max ((x (_ BitVec 32)) (y (_ BitVec 32))) (_ BitVec 32)
  (ite (bvule x y) y x))

;; min
(define-fun min ((x Int) (y Int)) Int
  (ite (<= x y) x y))

;; max
(define-fun max ((x Int) (y Int)) Int
  (ite (<= x y) y x))

;; Min_r
(assert (forall ((x Int) (y Int)) (=> (<= y x) (= (min x y) y))))

;; Max_l
(assert (forall ((x Int) (y Int)) (=> (<= y x) (= (max x y) x))))

;; Min_comm
(assert (forall ((x Int) (y Int)) (= (min x y) (min y x))))

;; Max_comm
(assert (forall ((x Int) (y Int)) (= (max x y) (max y x))))

;; Min_assoc
(assert
  (forall ((x Int) (y Int) (z Int)) (= (min (min x y) z) (min x (min y z)))))

;; Max_assoc
(assert
  (forall ((x Int) (y Int) (z Int)) (= (max (max x y) z) (max x (max y z)))))

;; bv_min_to_uint
(assert
  (forall ((x (_ BitVec 32)) (y (_ BitVec 32)))
    (= (bv2nat (bv_min x y)) (min (bv2nat x) (bv2nat y)))))

;; bv_max_to_uint
(assert
  (forall ((x (_ BitVec 32)) (y (_ BitVec 32)))
    (= (bv2nat (bv_max x y)) (max (bv2nat x) (bv2nat y)))))

;; uc_of_int
(define-fun uc_of_int ((x Int)) (_ BitVec 32)
  (ite (<= 0 x) ((_ int2bv 32) x) (bvneg ((_ int2bv 32) (- x)))))

;; uc_to_int
(define-fun uc_to_int ((x (_ BitVec 32))) Int
  (ite (= (bool_lt x ((_ int2bv 32) two_power_size_minus_one)) true)
    (bv2nat x)
    (- (bv2nat (bvneg x)))))

;; bool_eq
(define-fun bool_eq1 ((x Bool) (y Bool)) Bool
  (ite (= x y) true false))

;; to_int
(define-fun to_int2 ((b Bool)) Int
  (ite (= b true) 1 0))

;; of_int
(define-fun of_int ((i Int)) Bool
  (ite (= i 0) false true))

;; in_range
(define-fun in_range ((x Int)) Bool
  (or (= x 0) (= x 1)))

;; attr__ATTRIBUTE_IMAGE
(declare-fun attr__ATTRIBUTE_IMAGE (Bool) us_image)

;; attr__ATTRIBUTE_VALUE__pre_check
(declare-fun attr__ATTRIBUTE_VALUE__pre_check (us_image) Bool)

;; attr__ATTRIBUTE_VALUE
(declare-fun attr__ATTRIBUTE_VALUE (us_image) Bool)

(declare-sort natural 0)

;; natural'int
(declare-fun naturalqtint (natural) Int)

;; natural'axiom
(assert
  (forall ((i natural))
    (and (<= 0 (naturalqtint i)) (<= (naturalqtint i) 2147483647))))

;; in_range
(define-fun in_range1 ((x Int)) Bool
  (and (<= 0 x) (<= x 2147483647)))

;; bool_eq
(define-fun bool_eq2 ((x Int) (y Int)) Bool
  (ite (= x y) true false))

;; attr__ATTRIBUTE_IMAGE
(declare-fun attr__ATTRIBUTE_IMAGE1 (Int) us_image)

;; attr__ATTRIBUTE_VALUE__pre_check
(declare-fun attr__ATTRIBUTE_VALUE__pre_check1 (us_image) Bool)

;; attr__ATTRIBUTE_VALUE
(declare-fun attr__ATTRIBUTE_VALUE1 (us_image) Int)

;; user_eq
(declare-fun user_eq (natural
  natural) Bool)

(declare-const dummy natural)

(declare-datatypes ((natural__ref 0))
  (((natural__refqtmk (natural__content natural)))))

;; natural__ref_natural__content__projection
(define-fun natural__ref_natural__content__projection ((a natural__ref)) natural
  (natural__content a))

;; dynamic_invariant
(define-fun dynamic_invariant ((temp___expr_46 Int) (temp___is_init_42 Bool) (temp___skip_constant_43 Bool) (temp___do_toplevel_44 Bool) (temp___do_typ_inv_45 Bool)) Bool
  (=>
    (or (= temp___is_init_42 true) (<= 0 2147483647))
    (in_range1 temp___expr_46)))

;; bool_eq
(declare-fun bool_eq3 (Int
  Int) Bool)

(declare-const value__size Int)

(declare-const object__size Int)

(declare-const alignment Int)

;; value__size_axiom
(assert (<= 0 value__size))

;; object__size_axiom
(assert (<= 0 object__size))

;; alignment_axiom
(assert (<= 0 alignment))

;; user_eq
(declare-fun user_eq1 (Int
  Int) Bool)

(declare-const dummy1 Int)

(declare-datatypes ((big_integer__ref 0))
  (((big_integer__refqtmk (big_integer__content Int)))))

;; big_integer__ref_big_integer__content__projection
(define-fun big_integer__ref_big_integer__content__projection ((a big_integer__ref)) Int
  (big_integer__content a))

(declare-datatypes ((valid_big_integer__ref 0))
  (((valid_big_integer__refqtmk (valid_big_integer__content Int)))))

;; valid_big_integer__ref_valid_big_integer__content__projection
(define-fun valid_big_integer__ref_valid_big_integer__content__projection 
  ((a valid_big_integer__ref)) Int
  (valid_big_integer__content a))

;; big
(declare-fun big ((_ BitVec 32)) Int)

;; big__function_guard
(declare-fun big__function_guard (Int
  (_ BitVec 32)) Bool)

(declare-sort unsigned 0)

(declare-const attr__ATTRIBUTE_MODULUS (_ BitVec 32))

;; bool_eq
(define-fun bool_eq4 ((x (_ BitVec 32)) (y (_ BitVec 32))) Bool
  (ite (= x y) true false))

;; attr__ATTRIBUTE_IMAGE
(declare-fun attr__ATTRIBUTE_IMAGE2 ((_ BitVec 32)) us_image)

;; attr__ATTRIBUTE_VALUE__pre_check
(declare-fun attr__ATTRIBUTE_VALUE__pre_check2 (us_image) Bool)

;; attr__ATTRIBUTE_VALUE
(declare-fun attr__ATTRIBUTE_VALUE2 (us_image) (_ BitVec 32))

;; user_eq
(declare-fun user_eq2 (unsigned
  unsigned) Bool)

(declare-const dummy2 unsigned)

(declare-datatypes ((unsigned__ref 0))
  (((unsigned__refqtmk (unsigned__content unsigned)))))

;; unsigned__ref_unsigned__content__2__projection
(define-fun unsigned__ref_unsigned__content__2__projection ((a unsigned__ref)) unsigned
  (unsigned__content a))

;; dynamic_invariant
(define-fun dynamic_invariant1 ((temp___expr_187 (_ BitVec 32)) (temp___is_init_183 Bool) (temp___skip_constant_184 Bool) (temp___do_toplevel_185 Bool) (temp___do_typ_inv_186 Bool)) Bool
  true)

;; big__post_axiom
(assert true)

;; big__def_axiom
(assert
  (forall ((arg (_ BitVec 32)))
    (! (=>
         (dynamic_invariant1 arg true true true true)
         (= (big arg) (bv2nat arg))) :pattern ((big arg)) )))

(declare-const left (_ BitVec 32))

(declare-const modulus (_ BitVec 32))

(declare-const right Int)

(declare-datatypes ((big_natural__ref 0))
  (((big_natural__refqtmk (big_natural__content Int)))))

;; big_natural__ref_big_natural__content__projection
(define-fun big_natural__ref_big_natural__content__projection ((a big_natural__ref)) Int
  (big_natural__content a))

(declare-datatypes ((big_positive__ref 0))
  (((big_positive__refqtmk (big_positive__content Int)))))

;; big_positive__ref_big_positive__content__projection
(define-fun big_positive__ref_big_positive__content__projection ((a big_positive__ref)) Int
  (big_positive__content a))

;; nth
(declare-fun nth1 ((_ BitVec 64)
  Int) Bool)

;; lsr
(declare-fun lsr1 ((_ BitVec 64)
  Int) (_ BitVec 64))

;; asr
(declare-fun asr1 ((_ BitVec 64)
  Int) (_ BitVec 64))

;; lsl
(declare-fun lsl1 ((_ BitVec 64)
  Int) (_ BitVec 64))

;; rotate_right
(declare-fun rotate_right2 ((_ BitVec 64)
  Int) (_ BitVec 64))

;; rotate_left
(declare-fun rotate_left2 ((_ BitVec 64)
  Int) (_ BitVec 64))

(declare-const two_power_size_minus_one1 Int)

;; two_power_size_minus_one_val
(assert (= two_power_size_minus_one1 (pow2 (- 64 1))))

;; to_int
(define-fun to_int3 ((x (_ BitVec 64))) Int
  (ite (bvsge x (_ bv0 64))
    (bv2nat x)
    (- (- 18446744073709551616 (bv2nat x)))))

;; uint_in_range
(define-fun uint_in_range1 ((i Int)) Bool
  (and (<= 0 i) (<= i 18446744073709551615)))

;; lsr_bv_is_lsr
(assert
  (forall ((x (_ BitVec 64)) (n (_ BitVec 64)))
    (= (bvlshr x n) (lsr1 x (bv2nat n)))))

;; asr_bv_is_asr
(assert
  (forall ((x (_ BitVec 64)) (n (_ BitVec 64)))
    (= (bvashr x n) (asr1 x (bv2nat n)))))

;; lsl_bv_is_lsl
(assert
  (forall ((x (_ BitVec 64)) (n (_ BitVec 64)))
    (= (bvshl x n) (lsl1 x (bv2nat n)))))

;; rotate_left_bv_is_rotate_left
(assert
  (forall ((v (_ BitVec 64)) (n (_ BitVec 64)))
    (= (bvor (bvshl v (bvurem n (_ bv64 64))) (bvlshr v (bvsub (_ bv64 64) (bvurem n (_ bv64 64))))) 
    (rotate_left2
      v
      (bv2nat n)))))

;; rotate_right_bv_is_rotate_right
(assert
  (forall ((v (_ BitVec 64)) (n (_ BitVec 64)))
    (= (bvor (bvlshr v (bvurem n (_ bv64 64))) (bvshl v (bvsub (_ bv64 64) (bvurem n (_ bv64 64))))) 
    (rotate_right2
      v
      (bv2nat n)))))

;; nth_bv
(declare-fun nth_bv1 ((_ BitVec 64)
  (_ BitVec 64)) Bool)

;; nth_bv_def
(assert
  (forall ((x (_ BitVec 64)) (i (_ BitVec 64)))
    (=
      (= (nth_bv1 x i) true)
      (not (= (bvand (bvlshr x i) #x0000000000000001) #x0000000000000000)))))

;; Nth_bv_is_nth
(assert
  (forall ((x (_ BitVec 64)) (i (_ BitVec 64)))
    (= (nth1 x (bv2nat i)) (nth_bv1 x i))))

;; Nth_bv_is_nth2
(assert
  (forall ((x (_ BitVec 64)) (i Int))
    (=>
      (and (<= 0 i) (< i 18446744073709551616))
      (= (nth_bv1 x ((_ int2bv 64) i)) (nth1 x i)))))

;; eq_sub_bv
(declare-fun eq_sub_bv1 ((_ BitVec 64)
  (_ BitVec 64)
  (_ BitVec 64)
  (_ BitVec 64)) Bool)

;; eq_sub_bv_def
(assert
  (forall ((a (_ BitVec 64)) (b (_ BitVec 64)) (i (_ BitVec 64)) (n (_ BitVec 64)))
    (let ((mask (bvshl (bvsub (bvshl #x0000000000000001 n) #x0000000000000001) i)))
      (= (eq_sub_bv1 a b i n) (= (bvand b mask) (bvand a mask))))))

;; eq_sub
(define-fun eq_sub1 ((a (_ BitVec 64)) (b (_ BitVec 64)) (i Int) (n Int)) Bool
  (forall ((j Int))
    (=> (and (<= i j) (< j (+ i n))) (= (nth1 a j) (nth1 b j)))))

;; eq_sub_equiv
(assert
  (forall ((a (_ BitVec 64)) (b (_ BitVec 64)) (i (_ BitVec 64)) (n (_ BitVec 64)))
    (= (eq_sub1 a b (bv2nat i) (bv2nat n)) (eq_sub_bv1 a b i n))))

(declare-datatypes ((t__ref1 0))
  (((t__refqtmk1 (t__content1 (_ BitVec 64))))))

;; bool_eq
(define-fun bool_eq5 ((x (_ BitVec 64)) (y (_ BitVec 64))) Bool
  (ite (= x y) true false))

;; bool_ne
(define-fun bool_ne1 ((x (_ BitVec 64)) (y (_ BitVec 64))) Bool
  (ite (not (= x y)) true false))

;; bool_lt
(define-fun bool_lt1 ((x (_ BitVec 64)) (y (_ BitVec 64))) Bool
  (ite (bvult x y) true false))

;; bool_le
(define-fun bool_le1 ((x (_ BitVec 64)) (y (_ BitVec 64))) Bool
  (ite (bvule x y) true false))

;; bool_gt
(define-fun bool_gt1 ((x (_ BitVec 64)) (y (_ BitVec 64))) Bool
  (ite (bvugt x y) true false))

;; bool_ge
(define-fun bool_ge1 ((x (_ BitVec 64)) (y (_ BitVec 64))) Bool
  (ite (bvuge x y) true false))

;; power
(declare-fun power2 ((_ BitVec 64)
  Int) (_ BitVec 64))

;; Power_0
(assert (forall ((x (_ BitVec 64))) (= (power2 x 0) #x0000000000000001)))

;; Power_1
(assert (forall ((x (_ BitVec 64))) (= (power2 x 1) x)))

;; Power_s
(assert
  (forall ((x (_ BitVec 64)) (n Int))
    (=> (<= 0 n) (= (power2 x (+ n 1)) (bvmul x (power2 x n))))))

;; Power_s_alt
(assert
  (forall ((x (_ BitVec 64)) (n Int))
    (=> (< 0 n) (= (power2 x n) (bvmul x (power2 x (- n 1)))))))

;; Power_sum
(assert
  (forall ((x (_ BitVec 64)) (n Int) (m Int))
    (=>
      (<= 0 n)
      (=> (<= 0 m) (= (power2 x (+ n m)) (bvmul (power2 x n) (power2 x m)))))))

;; Power_mult
(assert
  (forall ((x (_ BitVec 64)) (n Int) (m Int))
    (=>
      (<= 0 n)
      (=> (<= 0 m) (= (power2 x (* n m)) (power2 (power2 x n) m))))))

;; Power_mult2
(assert
  (forall ((x (_ BitVec 64)) (y (_ BitVec 64)) (n Int))
    (=>
      (<= 0 n)
      (= (power2 (bvmul x y) n) (bvmul (power2 x n) (power2 y n))))))

;; bv_min
(define-fun bv_min1 ((x (_ BitVec 64)) (y (_ BitVec 64))) (_ BitVec 64)
  (ite (bvule x y) x y))

;; bv_max
(define-fun bv_max1 ((x (_ BitVec 64)) (y (_ BitVec 64))) (_ BitVec 64)
  (ite (bvule x y) y x))

;; bv_min_to_uint
(assert
  (forall ((x (_ BitVec 64)) (y (_ BitVec 64)))
    (= (bv2nat (bv_min1 x y)) (min (bv2nat x) (bv2nat y)))))

;; bv_max_to_uint
(assert
  (forall ((x (_ BitVec 64)) (y (_ BitVec 64)))
    (= (bv2nat (bv_max1 x y)) (max (bv2nat x) (bv2nat y)))))

;; uc_of_int
(define-fun uc_of_int1 ((x Int)) (_ BitVec 64)
  (ite (<= 0 x) ((_ int2bv 64) x) (bvneg ((_ int2bv 64) (- x)))))

;; uc_to_int
(define-fun uc_to_int1 ((x (_ BitVec 64))) Int
  (ite (= (bool_lt1 x ((_ int2bv 64) two_power_size_minus_one1)) true)
    (bv2nat x)
    (- (bv2nat (bvneg x)))))

;; mult
(define-fun mult ((x (_ BitVec 32)) (y (_ BitVec 32))) (_ BitVec 32)
  ((_ extract 31 0) (bvurem (bvmul ((_ zero_extend 32) x) ((_ zero_extend 32) y)) ((_ zero_extend 32) 
  modulus))))

;; mult__function_guard
(declare-fun mult__function_guard ((_ BitVec 32)
  (_ BitVec 32)
  (_ BitVec 32)) Bool)

(declare-const m Int)

;; equal_modulo
(declare-fun equal_modulo (Int
  Int) Bool)

;; equal_modulo__function_guard
(declare-fun equal_modulo__function_guard (Bool
  Int
  Int) Bool)

;; equal_modulo__post_axiom
(assert true)

;; equal_modulo__def_axiom
(assert
  (forall ((x Int) (y Int))
    (! (= (= (equal_modulo x y) true) (= (mod2 x m) (mod2 y m))) :pattern (
    (equal_modulo
      x
      y)) )))

(declare-sort power_of_2 0)

(declare-const attr__ATTRIBUTE_MODULUS1 (_ BitVec 32))

;; bool_eq
(define-fun bool_eq6 ((x (_ BitVec 32)) (y (_ BitVec 32))) Bool
  (ite (= x y) true false))

;; attr__ATTRIBUTE_IMAGE
(declare-fun attr__ATTRIBUTE_IMAGE3 ((_ BitVec 32)) us_image)

;; attr__ATTRIBUTE_VALUE__pre_check
(declare-fun attr__ATTRIBUTE_VALUE__pre_check3 (us_image) Bool)

;; attr__ATTRIBUTE_VALUE
(declare-fun attr__ATTRIBUTE_VALUE3 (us_image) (_ BitVec 32))

;; user_eq
(declare-fun user_eq3 (power_of_2
  power_of_2) Bool)

(declare-const dummy3 power_of_2)

(declare-datatypes ((power_of_2__ref 0))
  (((power_of_2__refqtmk (power_of_2__content power_of_2)))))

;; power_of_2__ref_power_of_2__content__projection
(define-fun power_of_2__ref_power_of_2__content__projection ((a power_of_2__ref)) power_of_2
  (power_of_2__content a))

;; dynamic_invariant
(define-fun dynamic_invariant2 ((temp___expr_234 Int) (temp___is_init_230 Bool) (temp___skip_constant_231 Bool) (temp___do_toplevel_232 Bool) (temp___do_typ_inv_233 Bool)) Bool
  (=>
    (= temp___do_toplevel_232 true)
    (=> (= temp___is_init_230 true) (< 0 temp___expr_234))))

;; m__def_axiom
(assert (= m (big modulus)))

;; dynamic_invariant
(define-fun dynamic_invariant3 ((temp___expr_216 (_ BitVec 32)) (temp___is_init_212 Bool) (temp___skip_constant_213 Bool) (temp___do_toplevel_214 Bool) (temp___do_typ_inv_215 Bool)) Bool
  (=>
    (= temp___do_toplevel_214 true)
    (=>
      (= temp___is_init_212 true)
      (and
        (not (= temp___expr_216 #x00000000))
        (= (bvand temp___expr_216 (bvsub temp___expr_216 #x00000001)) #x00000000)))))

;; dynamic_invariant
(define-fun dynamic_invariant4 ((temp___expr_208 Int) (temp___is_init_204 Bool) (temp___skip_constant_205 Bool) (temp___do_toplevel_206 Bool) (temp___do_typ_inv_207 Bool)) Bool
  true)

;; dynamic_invariant
(define-fun dynamic_invariant5 ((temp___expr_226 Int) (temp___is_init_222 Bool) (temp___skip_constant_223 Bool) (temp___do_toplevel_224 Bool) (temp___do_typ_inv_225 Bool)) Bool
  (=>
    (= temp___do_toplevel_224 true)
    (=> (= temp___is_init_222 true) (<= 0 temp___expr_226))))

(declare-const rest Int)

;; Assume
(assert (dynamic_invariant1 left true false true true))

;; Assume
(assert (dynamic_invariant1 modulus true false true true))

;; Assume
(assert (dynamic_invariant right true false true true))

;; Assume
(assert
  (and
    (not (= modulus #x00000000))
    (= (not (and (ite true true false) (ite (let ((temp___317 modulus))
                                              (and
                                                (not
                                                  (= temp___317 #x00000000))
                                                (= (bvand temp___317 (bvsub temp___317 #x00000001)) #x00000000)))
                                         true
                                         false))) true)))

(declare-const result__ (_ BitVec 32))

;; H
(assert (= result__ #x00000001))

;; Assume
(assert (dynamic_invariant1 result__ true false true true))

(declare-const factor (_ BitVec 32))

;; H
(assert (= factor left))

;; Assume
(assert (dynamic_invariant1 factor true false true true))

(declare-const exp1 Int)

;; H
(assert (= exp1 right))

;; Assume
(assert (dynamic_invariant exp1 true false true true))

;; H
(assert true)

;; H
(assert (= (big modulus) (bv2nat modulus)))

;; Assert
(assert (< 0 (big modulus)))

;; Assume
(assert (= (big modulus) m))

;; Assume
(assert (dynamic_invariant2 m true false true true))

;; Assume
(assert true)

;; Assume
(assert true)

;; (=)'result'unused'unused
(define-fun lpeqrpqtresultqtunusedqtunused () Bool
  (ite (= exp1 0) true false))

(declare-const spark__branch Bool)

;; H
(assert (= spark__branch (ite (= exp1 0) false true)))

;; H
(assert (= spark__branch true))

(declare-const result__1 (_ BitVec 32))

(declare-const factor1 (_ BitVec 32))

(declare-const exp2 Int)

(declare-const rest1 Int)

;; LoopInvariant
(assert (< 0 exp2))

;; LoopInvariant
(assert (bvult result__1 modulus))

;; LoopInvariant
(assert
  (= (equal_modulo
       (* (big result__1) (power (big factor1) exp2))
       (power (big left) right)) true))

;; Assume
(assert
  (and
    (and
      (dynamic_invariant1 result__1 true true true true)
      (dynamic_invariant1 factor1 true true true true))
    (dynamic_invariant exp2 true true true true)))

(declare-const result__2 (_ BitVec 32))

(declare-const spark__branch1 Bool)

;; H
(assert (= spark__branch1 (ite (= (mod1 exp2 2) 0) false true)))

;; H
(assert
  (ite (= spark__branch1 true)
    (let ((o modulus))
      (let ((o1 (big o)))
        (and
          (= o1 (bv2nat o))
          (and
            (< 0 o1)
            (let ((o2 (- exp2 1)))
              (and
                (in_range1 o2)
                (let ((o3 (big factor1)))
                  (and
                    (= o3 (bv2nat factor1))
                    (let ((o4 (power o3 o2)))
                      (and
                        (<= 0 o4)
                        (let ((o5 (big factor1)))
                          (and
                            (= o5 (bv2nat factor1))
                            (let ((o6 (big result__1)))
                              (and
                                (= o6 (bv2nat result__1))
                                (let ((o7 (* o6 o5)))
                                  (and
                                    (<= 0 o7)
                                    (and
                                      (= (mod2 (* o7 o4) o1) (mod2
                                                               (* (mod2
                                                                    o7
                                                                    o1) 
                                                               (mod2
                                                                 o4
                                                                 o1))
                                                               o1))
                                      (let ((o8 (mult result__1 factor1)))
                                        (and
                                          (and
                                            (dynamic_invariant1
                                              o8
                                              true
                                              false
                                              true
                                              true)
                                            (= o8 ((_ extract 31 0) (bvurem (bvmul ((_ zero_extend 32) 
                                            result__1) ((_ zero_extend 32) 
                                            factor1)) ((_ zero_extend 32) 
                                            modulus)))))
                                          (and
                                            (= result__2 o8)
                                            (let ((o9 modulus))
                                              (let ((o10 (big o9)))
                                                (and
                                                  (= o10 (bv2nat o9))
                                                  (and
                                                    (< 0 o10)
                                                    (let ((o11 (- exp2 1)))
                                                      (and
                                                        (in_range1 o11)
                                                        (let ((o12 (big
                                                                    factor1)))
                                                          (and
                                                            (= o12 (bv2nat 
                                                            factor1))
                                                            (let ((o13 
                                                              (power
                                                                o12
                                                                o11)))
                                                              (and
                                                                (<= 0 o13)
                                                                (let ((o14 
                                                                  (big
                                                                    result__2)))
                                                                  (and
                                                                    (= o14 (bv2nat 
                                                                    result__2))
                                                                    (and
                                                                    (<= 0 o14)
                                                                    (= 
                                                                    (mod2
                                                                    (* o14 o13)
                                                                    o10) 
                                                                    (mod2
                                                                    (* 
                                                                    (mod2
                                                                    o14
                                                                    o10) 
                                                                    (mod2
                                                                    o13
                                                                    o10))
                                                                    o10)))))))))))))))))))))))))))))))))))
    (= result__2 result__1)))

(declare-const exp3 Int)

;; H
(assert (= exp3 (div1 exp2 2)))

;; (=)'result'unused'unused
(define-fun lpeqrpqtresultqtunusedqtunused1 () Bool
  (ite (= exp3 0) true false))

;; H
(assert (not (= exp3 0)))

;; H
(assert true)

;; H
(assert (= (big factor1) (bv2nat factor1)))

;; Assert
(assert true)

(declare-const rest2 Int)

;; H
(assert (= rest2 (power (big factor1) exp3)))

;; H
(assert true)

;; H
(assert (= (big modulus) (bv2nat modulus)))

;; Assert
(assert (< 0 (big modulus)))

;; H
(assert true)

;; H
(assert (= (big factor1) (bv2nat factor1)))

;; Assert
(assert true)

;; H
(assert true)

;; H
(assert (= (big factor1) (bv2nat factor1)))

;; Assert
(assert true)

;; Goal def'vc
;; File "s-expmod.ads", line 76, characters 0-0
(assert
  (not (<= 0 (* (big factor1) (big factor1)))))

(check-sat)
(exit)
